674240
160,122,177,51,199,178,31,43,147,127,163,49,118,32,63,7,210,117,20,183,36,1,72,140,71,67,39,207,74,157,83,135,162,229,133,155,112,169,27,40,81,130,55,62,102,87,35,94,108,50,151,28,78,215,75,205,34,192,37,89,179,196,107,161,116,184,101,166,9,68,96,91,22,26,144,211,145,156,5,64,44,223,176,220,13,17,47,225,48,111,134,19,227,125,46,214,197,143,174,11,139,59,221,52,132,149,115,2,82,158,77,222,41,128,141,24,216,100,53,92,18,56,54,175,105,202,99,190,66,219,106,121,180,103,187,12,146,88,228,109,90,186,171,150,170,142,4,21,217,153,129,33,224,38,203,6,104,212,45,230,204,172,168,93,213,58,76,57,29,193,195,84,95,79,167,85,123,25,80,182,61,148,131,173,124,188,181,136,206,218,209,73,152,191,126,70,86,119,114,198,200,10,201,65,154,164,14,110,120,165,194,97,8,30,15,137,138,60,16,189,185,3,208,159,23,69,226,98,42,113
